row=9;
column=9;
Board=[|4,5,0,0,0,1,0,0,0|0,0,0,0,0,0,0,0,0|0,0,0,0,5,0,0,1,0|0,0,0,0,0,0,0,0,0|0,0,0,0,0,0,0,0,0|0,0,0,0,0,0,0,0,0|0,0,0,0,0,0,2,0,0|0,0,0,0,0,0,0,0,0|0,4,0,6,0,0,0,0,0|];
right = [3,0,3,1,2,1,4,1,5];
bottom = [5,2,2,4,2,1,2,1,1];
